NAME 
OBJSENSE MAX
ROWS
 N  OBJ
 L  packing[0]
 L  packing[1]
 L  packing[2]
 L  packing[3]
 L  packing[4]
 L  packing[5]
 L  packing[6]
 L  packing[7]
 L  packing[8]
 L  packing[9]
 L  packing[10]
 L  packing[11]
 L  packing[12]
 L  packing[13]
 L  packing[14]
 L  packing[15]
 L  packing[16]
 L  packing[17]
 L  packing[18]
 L  packing[19]
 L  packing[20]
 L  packing[21]
 L  packing[22]
 L  packing[23]
 L  packing[24]
 L  packing[25]
 L  packing[26]
 L  packing[27]
 L  packing[28]
 L  packing[29]
 L  packing[30]
 L  packing[31]
 L  packing[32]
 L  packing[33]
 L  packing[34]
 L  packing[35]
 L  packing[36]
 L  packing[37]
 L  packing[38]
 L  packing[39]
 L  packing[40]
 L  packing[41]
 L  packing[42]
 L  packing[43]
 L  packing[44]
 L  packing[45]
 L  packing[46]
 L  packing[47]
 L  packing[48]
 L  packing[49]
 L  R63     
 L  R64     
 L  R65     
 L  R66     
 L  R67     
 L  R68     
 L  R69     
 L  R70     
 L  R71     
 L  R72     
 L  R73     
 L  R74     
 L  R75     
COLUMNS
    MARKER    'MARKER'                 'INTORG'
    x[1]      OBJ       65
    x[1]      packing[0]  162
    x[1]      packing[1]  8
    x[1]      packing[2]  19
    x[1]      packing[3]  139
    x[1]      packing[5]  167
    x[1]      packing[6]  2
    x[1]      packing[7]  183
    x[1]      packing[9]  195
    x[1]      packing[11]  65
    x[1]      packing[13]  30
    x[1]      packing[14]  97
    x[1]      packing[17]  136
    x[1]      packing[18]  37
    x[1]      packing[19]  195
    x[1]      packing[21]  71
    x[1]      packing[22]  22
    x[1]      packing[23]  18
    x[1]      packing[24]  4
    x[1]      packing[25]  178
    x[1]      packing[26]  147
    x[1]      packing[28]  146
    x[1]      packing[29]  91
    x[1]      packing[30]  106
    x[1]      packing[31]  29
    x[1]      packing[34]  70
    x[1]      packing[35]  29
    x[1]      packing[36]  111
    x[1]      packing[37]  168
    x[1]      packing[38]  185
    x[1]      packing[39]  152
    x[1]      packing[40]  157
    x[1]      packing[41]  122
    x[1]      packing[43]  112
    x[1]      packing[44]  165
    x[1]      packing[45]  69
    x[1]      packing[46]  198
    x[1]      packing[47]  180
    x[1]      packing[48]  22
    x[1]      packing[49]  36
    x[2]      OBJ       45
    x[2]      packing[0]  191
    x[2]      packing[2]  2
    x[2]      packing[3]  169
    x[2]      packing[4]  11
    x[2]      packing[5]  73
    x[2]      packing[6]  43
    x[2]      packing[7]  55
    x[2]      packing[11]  14
    x[2]      packing[12]  187
    x[2]      packing[13]  3
    x[2]      packing[14]  28
    x[2]      packing[16]  194
    x[2]      packing[17]  75
    x[2]      packing[18]  171
    x[2]      packing[19]  111
    x[2]      packing[21]  68
    x[2]      packing[22]  127
    x[2]      packing[23]  63
    x[2]      packing[25]  91
    x[2]      packing[26]  140
    x[2]      packing[27]  46
    x[2]      packing[28]  196
    x[2]      packing[29]  133
    x[2]      packing[31]  107
    x[2]      packing[32]  11
    x[2]      packing[33]  151
    x[2]      packing[34]  77
    x[2]      packing[35]  89
    x[2]      packing[36]  186
    x[2]      packing[37]  163
    x[2]      packing[39]  163
    x[2]      packing[40]  53
    x[2]      packing[41]  73
    x[2]      packing[42]  188
    x[2]      packing[45]  44
    x[2]      packing[46]  166
    x[2]      packing[47]  113
    x[2]      packing[49]  106
    x[3]      OBJ       186
    x[3]      packing[1]  130
    x[3]      packing[2]  111
    x[3]      packing[3]  152
    x[3]      packing[4]  10
    x[3]      packing[5]  46
    x[3]      packing[6]  86
    x[3]      packing[8]  120
    x[3]      packing[9]  160
    x[3]      packing[10]  93
    x[3]      packing[12]  176
    x[3]      packing[13]  54
    x[3]      packing[14]  151
    x[3]      packing[15]  124
    x[3]      packing[19]  118
    x[3]      packing[20]  67
    x[3]      packing[21]  12
    x[3]      packing[22]  151
    x[3]      packing[23]  102
    x[3]      packing[24]  3
    x[3]      packing[25]  130
    x[3]      packing[26]  171
    x[3]      packing[28]  105
    x[3]      packing[29]  165
    x[3]      packing[30]  10
    x[3]      packing[31]  73
    x[3]      packing[32]  78
    x[3]      packing[33]  30
    x[3]      packing[34]  4
    x[3]      packing[35]  62
    x[3]      packing[36]  90
    x[3]      packing[37]  133
    x[3]      packing[38]  49
    x[3]      packing[40]  117
    x[3]      packing[41]  180
    x[3]      packing[42]  108
    x[3]      packing[43]  135
    x[3]      packing[44]  88
    x[3]      packing[45]  176
    x[3]      packing[47]  104
    x[3]      packing[48]  55
    x[3]      R63       1
    x[3]      R64       1
    x[3]      R65       1
    x[3]      R67       1
    x[3]      R68       1
    x[3]      R69       1
    x[3]      R70       1
    x[3]      R71       1
    x[3]      R72       1
    x[3]      R73       1
    x[3]      R74       1
    x[4]      OBJ       82
    x[4]      packing[0]  142
    x[4]      packing[1]  183
    x[4]      packing[2]  108
    x[4]      packing[3]  22
    x[4]      packing[4]  42
    x[4]      packing[5]  22
    x[4]      packing[6]  36
    x[4]      packing[7]  53
    x[4]      packing[8]  80
    x[4]      packing[9]  96
    x[4]      packing[13]  141
    x[4]      packing[15]  67
    x[4]      packing[16]  91
    x[4]      packing[19]  181
    x[4]      packing[20]  12
    x[4]      packing[21]  155
    x[4]      packing[23]  55
    x[4]      packing[24]  54
    x[4]      packing[25]  118
    x[4]      packing[26]  115
    x[4]      packing[27]  98
    x[4]      packing[28]  8
    x[4]      packing[30]  65
    x[4]      packing[31]  39
    x[4]      packing[32]  135
    x[4]      packing[33]  29
    x[4]      packing[34]  163
    x[4]      packing[36]  65
    x[4]      packing[38]  179
    x[4]      packing[39]  35
    x[4]      packing[40]  71
    x[4]      packing[42]  165
    x[4]      packing[43]  11
    x[4]      packing[44]  6
    x[4]      packing[46]  146
    x[4]      packing[49]  172
    x[5]      OBJ       200
    x[5]      packing[0]  12
    x[5]      packing[1]  109
    x[5]      packing[2]  157
    x[5]      packing[5]  104
    x[5]      packing[6]  24
    x[5]      packing[7]  40
    x[5]      packing[8]  133
    x[5]      packing[9]  193
    x[5]      packing[11]  156
    x[5]      packing[12]  143
    x[5]      packing[13]  164
    x[5]      packing[14]  92
    x[5]      packing[15]  134
    x[5]      packing[16]  183
    x[5]      packing[19]  157
    x[5]      packing[20]  40
    x[5]      packing[22]  190
    x[5]      packing[23]  43
    x[5]      packing[24]  13
    x[5]      packing[25]  98
    x[5]      packing[26]  132
    x[5]      packing[31]  9
    x[5]      packing[33]  80
    x[5]      packing[36]  98
    x[5]      packing[37]  162
    x[5]      packing[38]  101
    x[5]      packing[40]  132
    x[5]      packing[41]  139
    x[5]      packing[43]  70
    x[5]      packing[45]  81
    x[5]      packing[46]  173
    x[5]      packing[47]  172
    x[5]      packing[48]  13
    x[5]      packing[49]  172
    x[5]      R63       1
    x[5]      R64       1
    x[5]      R65       1
    x[5]      R66       1
    x[5]      R67       1
    x[5]      R69       1
    x[5]      R70       1
    x[5]      R71       1
    x[5]      R72       1
    x[5]      R73       1
    x[5]      R74       1
    x[5]      R75       1
    x[6]      OBJ       165
    x[6]      packing[0]  131
    x[6]      packing[1]  151
    x[6]      packing[3]  77
    x[6]      packing[4]  132
    x[6]      packing[5]  162
    x[6]      packing[6]  55
    x[6]      packing[7]  129
    x[6]      packing[8]  191
    x[6]      packing[10]  128
    x[6]      packing[11]  136
    x[6]      packing[13]  178
    x[6]      packing[15]  142
    x[6]      packing[16]  109
    x[6]      packing[17]  54
    x[6]      packing[19]  5
    x[6]      packing[20]  3
    x[6]      packing[21]  135
    x[6]      packing[22]  162
    x[6]      packing[25]  60
    x[6]      packing[26]  42
    x[6]      packing[27]  142
    x[6]      packing[30]  87
    x[6]      packing[31]  60
    x[6]      packing[32]  104
    x[6]      packing[33]  33
    x[6]      packing[34]  76
    x[6]      packing[35]  23
    x[6]      packing[36]  127
    x[6]      packing[37]  55
    x[6]      packing[38]  166
    x[6]      packing[39]  115
    x[6]      packing[41]  140
    x[6]      packing[43]  40
    x[6]      packing[44]  55
    x[6]      packing[45]  12
    x[6]      packing[46]  32
    x[6]      packing[48]  154
    x[6]      packing[49]  72
    x[6]      R63       1
    x[6]      R65       1
    x[6]      R68       1
    x[6]      R70       1
    x[6]      R72       1
    x[6]      R75       1
    x[7]      OBJ       55
    x[7]      packing[0]  90
    x[7]      packing[1]  104
    x[7]      packing[2]  81
    x[7]      packing[3]  58
    x[7]      packing[4]  140
    x[7]      packing[5]  191
    x[7]      packing[6]  167
    x[7]      packing[7]  21
    x[7]      packing[8]  87
    x[7]      packing[9]  108
    x[7]      packing[10]  130
    x[7]      packing[13]  99
    x[7]      packing[14]  84
    x[7]      packing[15]  106
    x[7]      packing[16]  108
    x[7]      packing[17]  71
    x[7]      packing[18]  80
    x[7]      packing[19]  131
    x[7]      packing[21]  45
    x[7]      packing[22]  113
    x[7]      packing[23]  28
    x[7]      packing[24]  43
    x[7]      packing[25]  110
    x[7]      packing[26]  50
    x[7]      packing[28]  66
    x[7]      packing[29]  112
    x[7]      packing[30]  95
    x[7]      packing[31]  94
    x[7]      packing[32]  2
    x[7]      packing[33]  1
    x[7]      packing[34]  81
    x[7]      packing[37]  96
    x[7]      packing[44]  199
    x[7]      packing[46]  137
    x[7]      packing[48]  59
    x[7]      packing[49]  157
    x[8]      OBJ       80
    x[8]      packing[0]  70
    x[8]      packing[2]  113
    x[8]      packing[5]  191
    x[8]      packing[6]  176
    x[8]      packing[8]  176
    x[8]      packing[9]  28
    x[8]      packing[10]  106
    x[8]      packing[13]  184
    x[8]      packing[15]  168
    x[8]      packing[16]  85
    x[8]      packing[17]  152
    x[8]      packing[18]  24
    x[8]      packing[19]  151
    x[8]      packing[21]  188
    x[8]      packing[23]  198
    x[8]      packing[24]  51
    x[8]      packing[26]  46
    x[8]      packing[27]  167
    x[8]      packing[28]  98
    x[8]      packing[29]  107
    x[8]      packing[30]  142
    x[8]      packing[33]  144
    x[8]      packing[34]  30
    x[8]      packing[35]  102
    x[8]      packing[36]  26
    x[8]      packing[37]  57
    x[8]      packing[38]  31
    x[8]      packing[40]  56
    x[8]      packing[42]  6
    x[8]      packing[43]  90
    x[8]      packing[44]  17
    x[8]      packing[45]  68
    x[8]      packing[46]  54
    x[8]      packing[47]  56
    x[8]      packing[49]  160
    x[9]      OBJ       86
    x[9]      packing[0]  37
    x[9]      packing[1]  143
    x[9]      packing[2]  102
    x[9]      packing[3]  58
    x[9]      packing[5]  103
    x[9]      packing[6]  7
    x[9]      packing[7]  104
    x[9]      packing[9]  190
    x[9]      packing[10]  122
    x[9]      packing[11]  154
    x[9]      packing[13]  144
    x[9]      packing[14]  45
    x[9]      packing[15]  116
    x[9]      packing[16]  65
    x[9]      packing[18]  74
    x[9]      packing[21]  167
    x[9]      packing[23]  107
    x[9]      packing[24]  50
    x[9]      packing[26]  1
    x[9]      packing[27]  8
    x[9]      packing[28]  110
    x[9]      packing[29]  45
    x[9]      packing[31]  102
    x[9]      packing[32]  21
    x[9]      packing[33]  196
    x[9]      packing[34]  31
    x[9]      packing[37]  121
    x[9]      packing[41]  80
    x[9]      packing[42]  28
    x[9]      packing[43]  82
    x[9]      packing[44]  22
    x[9]      packing[47]  65
    x[9]      packing[48]  63
    x[9]      packing[49]  77
    x[9]      R69       1
    x[9]      R74       1
    x[10]     OBJ       125
    x[10]     packing[1]  128
    x[10]     packing[3]  45
    x[10]     packing[4]  80
    x[10]     packing[5]  33
    x[10]     packing[6]  145
    x[10]     packing[7]  186
    x[10]     packing[8]  32
    x[10]     packing[9]  139
    x[10]     packing[11]  168
    x[10]     packing[12]  94
    x[10]     packing[13]  112
    x[10]     packing[14]  69
    x[10]     packing[17]  61
    x[10]     packing[18]  47
    x[10]     packing[19]  70
    x[10]     packing[21]  192
    x[10]     packing[23]  102
    x[10]     packing[24]  98
    x[10]     packing[29]  46
    x[10]     packing[30]  151
    x[10]     packing[31]  94
    x[10]     packing[32]  16
    x[10]     packing[33]  191
    x[10]     packing[34]  101
    x[10]     packing[36]  128
    x[10]     packing[37]  6
    x[10]     packing[38]  135
    x[10]     packing[39]  70
    x[10]     packing[42]  112
    x[10]     packing[43]  91
    x[10]     packing[44]  39
    x[10]     packing[47]  162
    x[10]     packing[48]  43
    x[10]     packing[49]  72
    x[10]     R63       1
    x[10]     R64       1
    x[10]     R66       1
    x[10]     R68       1
    x[10]     R69       1
    x[10]     R70       1
    x[10]     R74       1
    x[10]     R75       1
    x[11]     OBJ       138
    x[11]     packing[0]  176
    x[11]     packing[1]  102
    x[11]     packing[3]  96
    x[11]     packing[5]  132
    x[11]     packing[6]  53
    x[11]     packing[8]  127
    x[11]     packing[9]  93
    x[11]     packing[10]  130
    x[11]     packing[11]  10
    x[11]     packing[14]  16
    x[11]     packing[15]  35
    x[11]     packing[16]  30
    x[11]     packing[19]  55
    x[11]     packing[20]  35
    x[11]     packing[21]  148
    x[11]     packing[23]  4
    x[11]     packing[24]  129
    x[11]     packing[25]  47
    x[11]     packing[26]  179
    x[11]     packing[28]  5
    x[11]     packing[29]  85
    x[11]     packing[30]  63
    x[11]     packing[31]  5
    x[11]     packing[32]  136
    x[11]     packing[33]  136
    x[11]     packing[34]  111
    x[11]     packing[37]  147
    x[11]     packing[38]  96
    x[11]     packing[39]  50
    x[11]     packing[41]  142
    x[11]     packing[42]  151
    x[11]     packing[44]  187
    x[11]     packing[45]  10
    x[11]     packing[46]  60
    x[11]     packing[49]  17
    x[11]     R63       1
    x[11]     R66       1
    x[11]     R67       1
    x[11]     R68       1
    x[11]     R69       1
    x[11]     R72       1
    x[12]     OBJ       197
    x[12]     packing[4]  62
    x[12]     packing[5]  137
    x[12]     packing[6]  94
    x[12]     packing[7]  175
    x[12]     packing[8]  184
    x[12]     packing[9]  74
    x[12]     packing[10]  1
    x[12]     packing[11]  167
    x[12]     packing[13]  31
    x[12]     packing[15]  22
    x[12]     packing[16]  121
    x[12]     packing[18]  19
    x[12]     packing[21]  29
    x[12]     packing[23]  101
    x[12]     packing[25]  103
    x[12]     packing[27]  148
    x[12]     packing[28]  107
    x[12]     packing[29]  1
    x[12]     packing[31]  78
    x[12]     packing[32]  158
    x[12]     packing[33]  9
    x[12]     packing[34]  89
    x[12]     packing[35]  156
    x[12]     packing[36]  193
    x[12]     packing[37]  169
    x[12]     packing[39]  32
    x[12]     packing[40]  66
    x[12]     packing[41]  164
    x[12]     packing[42]  21
    x[12]     packing[43]  73
    x[12]     packing[44]  91
    x[12]     packing[45]  180
    x[12]     packing[48]  75
    x[12]     packing[49]  5
    x[12]     R63       1
    x[12]     R68       1
    x[12]     R70       1
    x[12]     R71       1
    x[12]     R72       1
    x[12]     R73       1
    x[12]     R75       1
    x[13]     OBJ       19
    x[13]     packing[0]  44
    x[13]     packing[1]  165
    x[13]     packing[3]  117
    x[13]     packing[4]  94
    x[13]     packing[5]  87
    x[13]     packing[6]  159
    x[13]     packing[8]  126
    x[13]     packing[9]  199
    x[13]     packing[11]  11
    x[13]     packing[12]  185
    x[13]     packing[13]  3
    x[13]     packing[14]  14
    x[13]     packing[16]  105
    x[13]     packing[17]  44
    x[13]     packing[18]  8
    x[13]     packing[19]  54
    x[13]     packing[20]  69
    x[13]     packing[21]  75
    x[13]     packing[22]  36
    x[13]     packing[23]  191
    x[13]     packing[25]  77
    x[13]     packing[27]  181
    x[13]     packing[28]  34
    x[13]     packing[29]  148
    x[13]     packing[30]  16
    x[13]     packing[31]  170
    x[13]     packing[32]  115
    x[13]     packing[33]  19
    x[13]     packing[34]  106
    x[13]     packing[35]  100
    x[13]     packing[37]  178
    x[13]     packing[38]  135
    x[13]     packing[41]  14
    x[13]     packing[43]  196
    x[13]     packing[44]  142
    x[13]     packing[45]  104
    x[13]     packing[46]  149
    x[13]     packing[48]  6
    x[13]     packing[49]  119
    x[14]     OBJ       29
    x[14]     packing[0]  124
    x[14]     packing[1]  199
    x[14]     packing[2]  42
    x[14]     packing[5]  33
    x[14]     packing[6]  15
    x[14]     packing[7]  68
    x[14]     packing[8]  56
    x[14]     packing[10]  77
    x[14]     packing[11]  98
    x[14]     packing[12]  169
    x[14]     packing[15]  198
    x[14]     packing[16]  92
    x[14]     packing[17]  162
    x[14]     packing[18]  11
    x[14]     packing[19]  27
    x[14]     packing[20]  189
    x[14]     packing[22]  127
    x[14]     packing[23]  100
    x[14]     packing[24]  164
    x[14]     packing[26]  3
    x[14]     packing[27]  6
    x[14]     packing[28]  59
    x[14]     packing[29]  43
    x[14]     packing[30]  36
    x[14]     packing[31]  74
    x[14]     packing[33]  146
    x[14]     packing[34]  117
    x[14]     packing[37]  5
    x[14]     packing[38]  1
    x[14]     packing[39]  72
    x[14]     packing[42]  150
    x[14]     packing[43]  68
    x[14]     packing[44]  21
    x[14]     packing[45]  108
    x[14]     packing[47]  123
    x[14]     packing[48]  31
    x[14]     packing[49]  154
    x[15]     OBJ       72
    x[15]     packing[0]  178
    x[15]     packing[1]  174
    x[15]     packing[3]  43
    x[15]     packing[4]  32
    x[15]     packing[6]  20
    x[15]     packing[7]  104
    x[15]     packing[8]  25
    x[15]     packing[9]  194
    x[15]     packing[10]  169
    x[15]     packing[11]  153
    x[15]     packing[12]  90
    x[15]     packing[15]  3
    x[15]     packing[17]  79
    x[15]     packing[19]  82
    x[15]     packing[21]  194
    x[15]     packing[22]  61
    x[15]     packing[23]  102
    x[15]     packing[24]  26
    x[15]     packing[25]  74
    x[15]     packing[26]  29
    x[15]     packing[28]  75
    x[15]     packing[30]  79
    x[15]     packing[31]  196
    x[15]     packing[32]  56
    x[15]     packing[33]  11
    x[15]     packing[34]  189
    x[15]     packing[35]  183
    x[15]     packing[36]  74
    x[15]     packing[38]  148
    x[15]     packing[39]  51
    x[15]     packing[40]  16
    x[15]     packing[41]  126
    x[15]     packing[42]  147
    x[15]     packing[43]  150
    x[15]     packing[44]  169
    x[15]     packing[46]  166
    x[15]     packing[48]  75
    x[16]     OBJ       123
    x[16]     packing[0]  156
    x[16]     packing[1]  13
    x[16]     packing[4]  77
    x[16]     packing[6]  18
    x[16]     packing[7]  30
    x[16]     packing[9]  58
    x[16]     packing[11]  120
    x[16]     packing[12]  39
    x[16]     packing[15]  7
    x[16]     packing[17]  75
    x[16]     packing[19]  160
    x[16]     packing[20]  82
    x[16]     packing[21]  139
    x[16]     packing[22]  91
    x[16]     packing[24]  68
    x[16]     packing[25]  134
    x[16]     packing[27]  15
    x[16]     packing[29]  26
    x[16]     packing[31]  63
    x[16]     packing[32]  22
    x[16]     packing[33]  122
    x[16]     packing[34]  181
    x[16]     packing[35]  93
    x[16]     packing[37]  4
    x[16]     packing[39]  97
    x[16]     packing[40]  139
    x[16]     packing[41]  117
    x[16]     packing[42]  27
    x[16]     packing[44]  148
    x[16]     packing[45]  98
    x[16]     packing[47]  4
    x[16]     packing[48]  113
    x[16]     packing[49]  52
    x[16]     R65       1
    x[16]     R66       1
    x[16]     R69       1
    x[16]     R71       1
    x[16]     R72       1
    x[16]     R73       1
    x[16]     R75       1
    x[17]     OBJ       120
    x[17]     packing[1]  105
    x[17]     packing[2]  161
    x[17]     packing[4]  94
    x[17]     packing[5]  89
    x[17]     packing[6]  192
    x[17]     packing[7]  179
    x[17]     packing[9]  196
    x[17]     packing[11]  186
    x[17]     packing[12]  73
    x[17]     packing[13]  140
    x[17]     packing[14]  116
    x[17]     packing[15]  160
    x[17]     packing[16]  153
    x[17]     packing[17]  32
    x[17]     packing[18]  56
    x[17]     packing[20]  79
    x[17]     packing[23]  17
    x[17]     packing[24]  40
    x[17]     packing[25]  40
    x[17]     packing[26]  63
    x[17]     packing[27]  45
    x[17]     packing[28]  190
    x[17]     packing[29]  14
    x[17]     packing[30]  127
    x[17]     packing[31]  129
    x[17]     packing[32]  14
    x[17]     packing[33]  16
    x[17]     packing[34]  27
    x[17]     packing[35]  90
    x[17]     packing[36]  30
    x[17]     packing[37]  115
    x[17]     packing[38]  134
    x[17]     packing[39]  165
    x[17]     packing[41]  189
    x[17]     packing[42]  179
    x[17]     packing[43]  108
    x[17]     packing[44]  170
    x[17]     packing[45]  142
    x[17]     packing[47]  108
    x[17]     packing[48]  82
    x[17]     packing[49]  186
    x[18]     OBJ       117
    x[18]     packing[0]  83
    x[18]     packing[1]  119
    x[18]     packing[2]  47
    x[18]     packing[3]  5
    x[18]     packing[4]  65
    x[18]     packing[5]  123
    x[18]     packing[6]  4
    x[18]     packing[7]  185
    x[18]     packing[8]  55
    x[18]     packing[10]  99
    x[18]     packing[11]  99
    x[18]     packing[12]  95
    x[18]     packing[14]  94
    x[18]     packing[15]  48
    x[18]     packing[17]  80
    x[18]     packing[18]  69
    x[18]     packing[20]  30
    x[18]     packing[22]  59
    x[18]     packing[23]  107
    x[18]     packing[25]  52
    x[18]     packing[26]  155
    x[18]     packing[31]  74
    x[18]     packing[32]  47
    x[18]     packing[33]  3
    x[18]     packing[34]  140
    x[18]     packing[35]  184
    x[18]     packing[38]  149
    x[18]     packing[39]  22
    x[18]     packing[40]  84
    x[18]     packing[41]  63
    x[18]     packing[42]  95
    x[18]     packing[43]  199
    x[18]     packing[47]  25
    x[18]     R64       1
    x[18]     R67       1
    x[19]     OBJ       83
    x[19]     packing[0]  128
    x[19]     packing[1]  70
    x[19]     packing[2]  35
    x[19]     packing[3]  113
    x[19]     packing[4]  15
    x[19]     packing[5]  40
    x[19]     packing[6]  73
    x[19]     packing[8]  59
    x[19]     packing[9]  102
    x[19]     packing[10]  104
    x[19]     packing[12]  51
    x[19]     packing[13]  119
    x[19]     packing[15]  182
    x[19]     packing[16]  175
    x[19]     packing[17]  66
    x[19]     packing[18]  178
    x[19]     packing[19]  128
    x[19]     packing[20]  78
    x[19]     packing[21]  133
    x[19]     packing[23]  50
    x[19]     packing[24]  17
    x[19]     packing[26]  6
    x[19]     packing[27]  177
    x[19]     packing[29]  48
    x[19]     packing[30]  60
    x[19]     packing[32]  134
    x[19]     packing[33]  91
    x[19]     packing[34]  161
    x[19]     packing[35]  187
    x[19]     packing[37]  155
    x[19]     packing[38]  160
    x[19]     packing[39]  176
    x[19]     packing[41]  163
    x[19]     packing[42]  75
    x[19]     packing[43]  141
    x[19]     packing[44]  33
    x[19]     packing[45]  61
    x[19]     packing[46]  13
    x[19]     packing[49]  38
    x[20]     OBJ       104
    x[20]     packing[0]  50
    x[20]     packing[1]  154
    x[20]     packing[3]  185
    x[20]     packing[4]  101
    x[20]     packing[5]  172
    x[20]     packing[6]  2
    x[20]     packing[8]  2
    x[20]     packing[9]  118
    x[20]     packing[11]  4
    x[20]     packing[12]  83
    x[20]     packing[13]  114
    x[20]     packing[14]  52
    x[20]     packing[15]  144
    x[20]     packing[16]  62
    x[20]     packing[17]  116
    x[20]     packing[18]  165
    x[20]     packing[19]  102
    x[20]     packing[20]  171
    x[20]     packing[21]  29
    x[20]     packing[22]  73
    x[20]     packing[23]  52
    x[20]     packing[24]  199
    x[20]     packing[25]  167
    x[20]     packing[26]  119
    x[20]     packing[27]  159
    x[20]     packing[28]  175
    x[20]     packing[29]  131
    x[20]     packing[30]  119
    x[20]     packing[31]  120
    x[20]     packing[32]  126
    x[20]     packing[33]  89
    x[20]     packing[34]  4
    x[20]     packing[37]  151
    x[20]     packing[41]  58
    x[20]     packing[43]  27
    x[20]     packing[44]  128
    x[20]     packing[45]  111
    x[20]     packing[46]  122
    x[20]     packing[47]  150
    x[20]     packing[49]  179
    x[20]     R64       1
    x[20]     R65       1
    x[20]     R66       1
    x[20]     R67       1
    x[20]     R68       1
    x[20]     R72       1
    x[20]     R73       1
    x[20]     R74       1
    MARKER    'MARKER'                 'INTEND'
RHS
    RHS1      packing[0]  887
    RHS1      packing[1]  1029
    RHS1      packing[2]  489
    RHS1      packing[3]  640
    RHS1      packing[4]  478
    RHS1      packing[5]  953
    RHS1      packing[6]  686
    RHS1      packing[7]  756
    RHS1      packing[8]  727
    RHS1      packing[9]  1072
    RHS1      packing[10]  580
    RHS1      packing[11]  771
    RHS1      packing[12]  693
    RHS1      packing[13]  758
    RHS1      packing[14]  429
    RHS1      packing[15]  828
    RHS1      packing[16]  787
    RHS1      packing[17]  602
    RHS1      packing[18]  470
    RHS1      packing[19]  864
    RHS1      packing[20]  428
    RHS1      packing[21]  890
    RHS1      packing[22]  606
    RHS1      packing[23]  720
    RHS1      packing[24]  480
    RHS1      packing[25]  740
    RHS1      packing[26]  699
    RHS1      packing[27]  596
    RHS1      packing[28]  687
    RHS1      packing[29]  598
    RHS1      packing[30]  578
    RHS1      packing[31]  758
    RHS1      packing[32]  588
    RHS1      packing[33]  749
    RHS1      packing[34]  879
    RHS1      packing[35]  649
    RHS1      packing[36]  564
    RHS1      packing[37]  943
    RHS1      packing[38]  835
    RHS1      packing[39]  600
    RHS1      packing[40]  446
    RHS1      packing[41]  885
    RHS1      packing[42]  726
    RHS1      packing[43]  797
    RHS1      packing[44]  840
    RHS1      packing[45]  632
    RHS1      packing[46]  708
    RHS1      packing[47]  631
    RHS1      packing[48]  396
    RHS1      packing[49]  887
    RHS1      R63       5
    RHS1      R64       4
    RHS1      R65       4
    RHS1      R66       4
    RHS1      R67       4
    RHS1      R68       5
    RHS1      R69       5
    RHS1      R70       4
    RHS1      R71       3
    RHS1      R72       6
    RHS1      R73       4
    RHS1      R74       4
    RHS1      R75       4
BOUNDS
 BV BND1      x[1]    
 BV BND1      x[2]    
 BV BND1      x[3]    
 BV BND1      x[4]    
 BV BND1      x[5]    
 BV BND1      x[6]    
 BV BND1      x[7]    
 BV BND1      x[8]    
 BV BND1      x[9]    
 BV BND1      x[10]   
 BV BND1      x[11]   
 BV BND1      x[12]   
 BV BND1      x[13]   
 BV BND1      x[14]   
 BV BND1      x[15]   
 BV BND1      x[16]   
 BV BND1      x[17]   
 BV BND1      x[18]   
 BV BND1      x[19]   
 BV BND1      x[20]   
ENDATA
